c "591723.clq"
p edge 100 1344
e 1 17
e 1 18
e 1 19
e 1 20
e 1 21
e 1 22
e 1 23
e 1 24
e 1 25
e 1 26
e 1 27
e 1 28
e 1 31
e 1 32
e 1 34
e 1 35
e 1 36
e 1 38
e 1 43
e 1 46
e 1 47
e 1 53
e 1 64
e 1 65
e 1 69
e 1 70
e 1 72
e 1 75
e 1 79
e 1 81
e 1 98
e 1 100
e 2 17
e 2 18
e 2 19
e 2 20
e 2 21
e 2 22
e 2 23
e 2 24
e 2 25
e 2 26
e 2 28
e 2 29
e 2 30
e 2 31
e 2 32
e 2 33
e 2 34
e 2 38
e 2 41
e 2 44
e 2 45
e 2 51
e 2 57
e 2 60
e 2 62
e 2 69
e 2 77
e 2 78
e 2 81
e 2 87
e 2 93
e 2 94
e 2 95
e 2 96
e 3 17
e 3 19
e 3 25
e 3 30
e 3 31
e 3 35
e 3 48
e 3 60
e 3 67
e 3 68
e 3 91
e 3 92
e 4 17
e 4 18
e 4 22
e 4 24
e 4 31
e 4 34
e 4 41
e 4 45
e 4 52
e 4 62
e 4 69
e 4 72
e 4 80
e 4 82
e 4 93
e 5 17
e 5 18
e 5 20
e 5 21
e 5 23
e 5 24
e 5 25
e 5 26
e 5 27
e 5 28
e 5 29
e 5 34
e 5 35
e 5 45
e 5 55
e 5 57
e 5 59
e 5 66
e 5 68
e 5 69
e 5 70
e 5 71
e 5 89
e 5 100
e 6 17
e 6 18
e 6 19
e 6 21
e 6 22
e 6 23
e 6 26
e 6 36
e 6 38
e 6 44
e 6 50
e 6 55
e 7 17
e 7 18
e 7 19
e 7 20
e 7 21
e 7 22
e 7 23
e 7 24
e 7 25
e 7 26
e 7 28
e 7 30
e 7 37
e 7 41
e 7 57
e 7 59
e 7 63
e 7 72
e 7 73
e 7 89
e 8 17
e 8 18
e 8 19
e 8 20
e 8 21
e 8 22
e 8 23
e 8 25
e 8 27
e 8 29
e 8 30
e 8 31
e 8 33
e 8 34
e 8 35
e 8 38
e 8 41
e 8 43
e 8 46
e 8 66
e 8 67
e 8 83
e 8 88
e 8 92
e 8 94
e 8 96
e 9 17
e 9 18
e 9 19
e 9 20
e 9 21
e 9 29
e 9 32
e 9 37
e 9 44
e 9 48
e 9 57
e 9 61
e 9 95
e 10 17
e 10 18
e 10 19
e 10 20
e 10 21
e 10 22
e 10 23
e 10 24
e 10 26
e 10 28
e 10 33
e 10 43
e 10 44
e 10 46
e 10 51
e 10 53
e 10 57
e 10 64
e 10 68
e 10 74
e 10 79
e 10 83
e 10 86
e 10 89
e 10 91
e 10 98
e 11 17
e 11 18
e 11 19
e 11 20
e 11 21
e 11 22
e 11 23
e 11 24
e 11 25
e 11 26
e 11 27
e 11 36
e 11 45
e 11 49
e 11 56
e 11 65
e 11 86
e 11 89
e 11 90
e 12 17
e 12 18
e 12 19
e 12 20
e 12 22
e 12 25
e 12 29
e 12 31
e 12 38
e 12 41
e 12 50
e 12 54
e 12 65
e 12 68
e 12 70
e 12 86
e 12 89
e 12 93
e 13 17
e 13 18
e 13 19
e 13 20
e 13 27
e 13 28
e 13 30
e 13 31
e 13 32
e 13 33
e 13 35
e 13 36
e 13 37
e 13 43
e 13 53
e 13 65
e 13 67
e 13 70
e 13 72
e 13 73
e 13 74
e 13 77
e 13 78
e 13 80
e 13 81
e 13 87
e 13 89
e 13 90
e 13 96
e 14 17
e 14 18
e 14 19
e 14 20
e 14 21
e 14 22
e 14 23
e 14 25
e 14 31
e 14 33
e 14 37
e 14 39
e 14 40
e 14 41
e 14 44
e 14 46
e 14 50
e 14 54
e 14 55
e 14 58
e 14 63
e 14 77
e 14 84
e 14 87
e 14 100
e 15 17
e 15 18
e 15 19
e 15 20
e 15 21
e 15 22
e 15 24
e 15 26
e 15 27
e 15 29
e 15 32
e 15 33
e 15 36
e 15 38
e 15 39
e 15 42
e 15 43
e 15 45
e 15 47
e 15 49
e 15 54
e 15 55
e 15 57
e 15 60
e 15 61
e 15 70
e 15 78
e 15 82
e 15 87
e 16 17
e 16 18
e 16 19
e 16 20
e 16 21
e 16 23
e 16 24
e 16 26
e 16 28
e 16 31
e 16 34
e 16 40
e 16 42
e 16 51
e 16 55
e 16 58
e 16 59
e 16 60
e 16 64
e 16 65
e 16 68
e 16 73
e 16 74
e 16 75
e 16 79
e 16 81
e 16 82
e 16 88
e 17 18
e 17 19
e 17 20
e 17 21
e 17 22
e 17 23
e 17 24
e 17 25
e 17 26
e 17 27
e 17 28
e 17 29
e 17 30
e 17 32
e 17 33
e 17 34
e 17 35
e 17 36
e 17 37
e 17 38
e 17 39
e 17 40
e 17 42
e 17 43
e 17 44
e 17 45
e 17 46
e 17 47
e 17 48
e 17 49
e 17 51
e 17 53
e 17 54
e 17 57
e 17 58
e 17 59
e 17 62
e 17 63
e 17 64
e 17 65
e 17 66
e 17 67
e 17 68
e 17 76
e 17 77
e 17 83
e 17 85
e 17 87
e 17 90
e 17 92
e 17 93
e 17 96
e 17 97
e 17 99
e 18 19
e 18 20
e 18 21
e 18 22
e 18 23
e 18 24
e 18 25
e 18 26
e 18 27
e 18 28
e 18 29
e 18 30
e 18 31
e 18 36
e 18 37
e 18 39
e 18 40
e 18 41
e 18 42
e 18 44
e 18 45
e 18 46
e 18 47
e 18 49
e 18 50
e 18 52
e 18 53
e 18 63
e 18 69
e 18 71
e 18 74
e 18 75
e 18 76
e 18 84
e 18 86
e 18 90
e 18 94
e 18 97
e 19 20
e 19 21
e 19 22
e 19 23
e 19 24
e 19 25
e 19 26
e 19 27
e 19 28
e 19 29
e 19 32
e 19 33
e 19 34
e 19 35
e 19 39
e 19 40
e 19 43
e 19 44
e 19 46
e 19 48
e 19 52
e 19 56
e 19 58
e 19 59
e 19 61
e 19 62
e 19 63
e 19 69
e 19 70
e 19 75
e 19 77
e 19 80
e 19 85
e 19 87
e 19 88
e 19 96
e 20 21
e 20 22
e 20 23
e 20 24
e 20 25
e 20 26
e 20 27
e 20 28
e 20 29
e 20 30
e 20 31
e 20 32
e 20 33
e 20 34
e 20 37
e 20 38
e 20 39
e 20 40
e 20 41
e 20 42
e 20 43
e 20 48
e 20 49
e 20 52
e 20 53
e 20 56
e 20 61
e 20 64
e 20 66
e 20 67
e 20 68
e 20 69
e 20 71
e 20 73
e 20 74
e 20 76
e 20 78
e 20 85
e 20 86
e 20 93
e 20 96
e 21 22
e 21 23
e 21 24
e 21 26
e 21 27
e 21 28
e 21 29
e 21 30
e 21 32
e 21 33
e 21 35
e 21 36
e 21 38
e 21 40
e 21 43
e 21 45
e 21 46
e 21 47
e 21 48
e 21 52
e 21 53
e 21 57
e 21 59
e 21 60
e 21 62
e 21 63
e 21 65
e 21 68
e 21 70
e 21 74
e 21 75
e 21 77
e 21 82
e 21 90
e 21 92
e 21 96
e 21 98
e 22 23
e 22 24
e 22 25
e 22 27
e 22 29
e 22 30
e 22 32
e 22 34
e 22 35
e 22 36
e 22 37
e 22 38
e 22 39
e 22 40
e 22 41
e 22 43
e 22 44
e 22 47
e 22 48
e 22 52
e 22 56
e 22 57
e 22 58
e 22 62
e 22 64
e 22 66
e 22 68
e 22 73
e 22 76
e 22 81
e 22 84
e 22 85
e 22 87
e 22 93
e 22 97
e 23 24
e 23 25
e 23 26
e 23 27
e 23 28
e 23 29
e 23 30
e 23 36
e 23 41
e 23 42
e 23 43
e 23 45
e 23 47
e 23 50
e 23 51
e 23 52
e 23 55
e 23 57
e 23 58
e 23 61
e 23 66
e 23 67
e 23 72
e 23 73
e 23 75
e 23 76
e 23 77
e 23 78
e 23 79
e 23 86
e 23 88
e 23 92
e 23 93
e 23 95
e 23 99
e 24 25
e 24 27
e 24 28
e 24 30
e 24 31
e 24 32
e 24 33
e 24 35
e 24 36
e 24 39
e 24 42
e 24 44
e 24 47
e 24 48
e 24 50
e 24 51
e 24 56
e 24 67
e 24 70
e 24 77
e 24 78
e 24 82
e 24 84
e 24 86
e 24 88
e 24 91
e 24 92
e 24 96
e 24 98
e 24 100
e 25 26
e 25 27
e 25 28
e 25 30
e 25 32
e 25 37
e 25 39
e 25 40
e 25 45
e 25 47
e 25 48
e 25 49
e 25 52
e 25 53
e 25 54
e 25 55
e 25 56
e 25 57
e 25 58
e 25 59
e 25 61
e 25 63
e 25 69
e 25 80
e 25 82
e 25 83
e 25 84
e 25 92
e 25 97
e 25 100
e 26 27
e 26 28
e 26 29
e 26 30
e 26 31
e 26 32
e 26 33
e 26 37
e 26 38
e 26 39
e 26 40
e 26 42
e 26 46
e 26 49
e 26 50
e 26 51
e 26 53
e 26 56
e 26 58
e 26 59
e 26 63
e 26 65
e 26 66
e 26 70
e 26 72
e 26 76
e 26 87
e 26 89
e 26 91
e 27 29
e 27 31
e 27 32
e 27 34
e 27 35
e 27 36
e 27 37
e 27 38
e 27 39
e 27 41
e 27 42
e 27 46
e 27 47
e 27 49
e 27 50
e 27 51
e 27 52
e 27 53
e 27 54
e 27 55
e 27 60
e 27 64
e 27 66
e 27 70
e 27 76
e 27 77
e 27 80
e 27 81
e 27 85
e 27 88
e 27 93
e 28 29
e 28 30
e 28 32
e 28 33
e 28 34
e 28 35
e 28 36
e 28 37
e 28 38
e 28 41
e 28 45
e 28 46
e 28 48
e 28 49
e 28 50
e 28 51
e 28 53
e 28 54
e 28 59
e 28 62
e 28 64
e 28 68
e 28 71
e 28 72
e 28 73
e 28 80
e 28 81
e 28 85
e 28 86
e 28 89
e 28 91
e 28 93
e 28 96
e 28 99
e 29 30
e 29 31
e 29 33
e 29 34
e 29 35
e 29 36
e 29 37
e 29 42
e 29 44
e 29 45
e 29 52
e 29 54
e 29 56
e 29 62
e 29 66
e 29 69
e 29 73
e 29 74
e 29 75
e 29 77
e 29 93
e 29 95
e 30 31
e 30 32
e 30 34
e 30 35
e 30 36
e 30 39
e 30 42
e 30 45
e 30 46
e 30 47
e 30 49
e 30 50
e 30 53
e 30 58
e 30 63
e 30 64
e 30 66
e 30 67
e 30 72
e 30 73
e 30 75
e 30 76
e 30 79
e 30 83
e 30 85
e 30 89
e 30 90
e 30 92
e 30 93
e 30 94
e 30 98
e 30 99
e 31 33
e 31 34
e 31 35
e 31 38
e 31 40
e 31 42
e 31 46
e 31 48
e 31 49
e 31 54
e 31 60
e 31 64
e 31 73
e 31 75
e 31 78
e 31 80
e 31 90
e 31 96
e 31 98
e 32 33
e 32 36
e 32 37
e 32 39
e 32 41
e 32 42
e 32 43
e 32 44
e 32 45
e 32 48
e 32 50
e 32 51
e 32 55
e 32 61
e 32 65
e 32 66
e 32 67
e 32 71
e 32 79
e 32 80
e 32 82
e 32 85
e 32 94
e 32 96
e 32 97
e 32 99
e 32 100
e 33 34
e 33 37
e 33 41
e 33 50
e 33 55
e 33 56
e 33 72
e 33 80
e 33 88
e 33 98
e 34 35
e 34 38
e 34 40
e 34 41
e 34 44
e 34 47
e 34 50
e 34 51
e 34 52
e 34 72
e 34 78
e 34 80
e 34 84
e 34 89
e 34 96
e 34 97
e 34 98
e 35 38
e 35 39
e 35 40
e 35 42
e 35 43
e 35 46
e 35 47
e 35 49
e 35 52
e 35 54
e 35 57
e 35 59
e 35 60
e 35 63
e 35 64
e 35 67
e 35 68
e 35 72
e 35 76
e 35 79
e 35 83
e 35 84
e 35 87
e 35 89
e 35 90
e 35 91
e 35 95
e 35 99
e 35 100
e 36 37
e 36 40
e 36 45
e 36 47
e 36 48
e 36 50
e 36 51
e 36 52
e 36 56
e 36 58
e 36 61
e 36 65
e 36 69
e 36 71
e 36 76
e 36 80
e 36 82
e 36 85
e 36 91
e 36 94
e 36 99
e 37 39
e 37 40
e 37 42
e 37 44
e 37 46
e 37 48
e 37 49
e 37 56
e 37 57
e 37 58
e 37 62
e 37 64
e 37 65
e 37 66
e 37 67
e 37 68
e 37 69
e 37 71
e 37 74
e 37 79
e 37 82
e 37 89
e 37 90
e 37 92
e 37 93
e 37 95
e 38 39
e 38 41
e 38 43
e 38 44
e 38 49
e 38 54
e 38 56
e 38 57
e 38 58
e 38 60
e 38 61
e 38 62
e 38 67
e 38 70
e 38 75
e 38 79
e 38 87
e 39 40
e 39 47
e 39 49
e 39 54
e 39 59
e 39 60
e 39 67
e 39 70
e 39 80
e 39 82
e 39 86
e 39 88
e 39 95
e 40 42
e 40 43
e 40 52
e 40 54
e 40 55
e 40 57
e 40 58
e 40 67
e 40 68
e 40 73
e 40 75
e 40 76
e 40 79
e 40 82
e 40 90
e 40 92
e 40 93
e 40 97
e 41 43
e 41 50
e 41 52
e 41 54
e 41 62
e 41 69
e 41 70
e 41 71
e 41 76
e 41 82
e 41 83
e 41 84
e 41 95
e 42 44
e 42 45
e 42 46
e 42 49
e 42 51
e 42 53
e 42 55
e 42 56
e 42 59
e 42 60
e 42 71
e 42 76
e 42 82
e 42 83
e 42 94
e 42 99
e 43 50
e 43 51
e 43 56
e 43 67
e 43 68
e 43 69
e 43 75
e 43 76
e 43 78
e 43 81
e 43 86
e 43 100
e 44 47
e 44 48
e 44 56
e 44 59
e 44 61
e 44 63
e 44 74
e 44 79
e 44 85
e 44 87
e 44 91
e 44 94
e 45 48
e 45 55
e 45 56
e 45 60
e 45 63
e 45 64
e 45 73
e 45 79
e 45 81
e 45 88
e 45 98
e 46 52
e 46 55
e 46 61
e 46 68
e 46 77
e 46 85
e 46 88
e 46 92
e 46 94
e 47 51
e 47 53
e 47 54
e 47 60
e 47 61
e 47 62
e 47 63
e 47 66
e 47 69
e 47 75
e 47 79
e 47 87
e 47 89
e 47 94
e 47 96
e 47 97
e 47 98
e 48 63
e 48 74
e 48 80
e 48 88
e 48 94
e 48 95
e 48 99
e 49 51
e 49 53
e 49 54
e 49 62
e 49 65
e 49 66
e 49 71
e 49 77
e 49 81
e 49 84
e 49 92
e 49 95
e 50 53
e 50 60
e 50 66
e 50 73
e 50 82
e 50 84
e 50 90
e 50 92
e 50 98
e 50 100
e 51 58
e 51 59
e 51 63
e 51 64
e 51 65
e 51 72
e 51 75
e 51 76
e 51 78
e 51 82
e 51 88
e 51 90
e 51 91
e 51 94
e 51 97
e 52 55
e 52 58
e 52 81
e 52 99
e 53 55
e 53 59
e 53 70
e 53 73
e 53 83
e 53 85
e 53 86
e 53 93
e 54 61
e 54 65
e 54 71
e 54 72
e 54 77
e 54 81
e 54 100
e 55 57
e 55 59
e 55 62
e 55 65
e 55 66
e 55 69
e 55 77
e 55 78
e 55 79
e 55 82
e 55 83
e 55 84
e 55 94
e 55 95
e 55 99
e 56 60
e 56 61
e 56 68
e 56 74
e 56 75
e 56 79
e 56 81
e 56 83
e 56 84
e 56 95
e 56 97
e 57 58
e 57 61
e 57 62
e 57 70
e 57 72
e 57 74
e 57 78
e 57 85
e 57 88
e 57 94
e 57 100
e 58 92
e 58 99
e 59 60
e 59 61
e 59 62
e 59 69
e 59 71
e 59 85
e 59 96
e 60 63
e 60 64
e 60 74
e 60 78
e 60 81
e 60 83
e 60 86
e 60 95
e 60 97
e 61 65
e 61 71
e 61 73
e 61 77
e 61 81
e 61 86
e 61 93
e 61 94
e 61 100
e 62 71
e 62 74
e 62 75
e 62 83
e 62 91
e 63 64
e 63 72
e 63 78
e 63 87
e 63 95
e 64 67
e 64 71
e 64 72
e 64 74
e 64 78
e 64 92
e 64 97
e 64 98
e 64 99
e 65 71
e 65 90
e 66 73
e 66 91
e 66 93
e 66 97
e 67 91
e 68 81
e 68 83
e 68 84
e 68 89
e 68 91
e 68 100
e 69 70
e 69 78
e 69 86
e 69 91
e 69 100
e 70 74
e 70 90
e 70 98
e 71 87
e 71 97
e 72 84
e 72 89
e 72 94
e 73 80
e 73 86
e 73 98
e 74 76
e 74 84
e 74 87
e 74 89
e 74 91
e 74 92
e 74 96
e 75 95
e 75 97
e 76 77
e 76 84
e 76 85
e 76 95
e 76 98
e 76 100
e 77 79
e 77 80
e 77 98
e 77 99
e 78 90
e 78 91
e 79 80
e 79 90
e 79 96
e 80 83
e 80 87
e 81 86
e 82 83
e 83 85
e 83 88
e 85 88
e 87 88
e 91 99
e 92 99
e 93 97
e 99 100
